p cnf 100 120
34 -87 -17 0
51 35 15 0
-44 -7 -65 0
-56 -63 90 0
39 31 -21 0
72 -92 -41 0
34 65 48 0
99 60 35 0
81 89 -35 0
1 72 -77 0
-6 -79 -72 0
8 -54 94 0
-35 57 -88 0
-39 -42 -46 0
5 -70 64 0
-86 25 18 0
42 -5 65 0
26 33 -3 0
79 27 -98 0
65 -57 -46 0
40 62 -18 0
-86 -38 42 0
72 -7 93 0
-42 -91 -95 0
55 67 47 0
-2 -96 -17 0
-18 78 -87 0
11 -23 -79 0
18 -10 28 0
11 43 79 0
-97 34 -66 0
-83 79 -24 0
43 -30 42 0
27 37 -24 0
-44 91 -21 0
-82 44 25 0
94 58 -34 0
30 68 -44 0
17 -74 97 0
15 5 -37 0
63 84 88 0
-38 -91 95 0
77 -45 -89 0
-66 37 -39 0
13 20 92 0
-84 2 28 0
22 80 -39 0
56 47 2 0
100 47 -69 0
-58 53 21 0
-44 4 -30 0
46 -6 -35 0
-90 100 99 0
-38 -31 -36 0
-81 -99 -65 0
95 43 -97 0
-9 -30 -6 0
2 49 19 0
-4 16 14 0
80 -21 23 0
-10 84 -26 0
65 -30 32 0
-94 36 -26 0
-32 -48 -35 0
56 92 83 0
51 -38 -8 0
-87 88 -39 0
67 76 56 0
-78 -85 38 0
45 -58 -77 0
-31 -29 40 0
50 -40 -68 0
78 -58 -17 0
1 83 37 0
34 94 -48 0
-76 52 -36 0
4 -12 64 0
-58 89 -19 0
-66 -36 -9 0
-76 26 -1 0
38 -34 -88 0
53 -49 23 0
41 -76 52 0
-72 32 -43 0
-95 -96 -93 0
-2 14 23 0
22 96 90 0
99 56 57 0
-79 -72 -47 0
69 -66 -40 0
-23 14 -34 0
-51 74 -29 0
-65 -56 -40 0
-43 -27 -49 0
16 -13 -34 0
-55 -96 23 0
-100 -7 92 0
49 -36 -72 0
-59 23 26 0
73 26 77 0
x 3 4 11 -12 -14 15 21 -23 -25 27 28 -29 30 33 -36 -37 -38 -39 -40 -41 -42 -48 -51 -52 55 -57 -58 59 -61 63 -64 66 69 -70 -73 74 -76 78 79 81 -84 -86 93 -94 -95 97 -99 -100 0
x 1 2 -3 -4 7 -10 14 16 -17 18 20 22 -24 26 -30 31 36 39 43 44 -46 47 48 50 51 -55 56 57 -58 59 60 -61 -62 65 66 69 70 -72 -73 -74 -77 -79 80 83 -84 -90 95 -96 -100 0
x 2 3 8 10 -11 -13 14 17 -20 -22 -23 -24 -27 -32 -34 35 -37 39 -40 -42 -45 47 -48 51 -53 -54 -55 -58 59 -60 -61 62 -66 -67 -69 -71 -73 -75 -76 78 -79 80 81 82 -83 84 86 87 88 -89 -91 -96 -99 0
x -1 -4 -6 10 -11 12 -14 17 -19 24 25 -31 34 -38 -39 -41 45 46 47 48 50 -52 54 -57 -58 -60 -61 63 65 67 72 -73 74 76 79 80 -81 82 84 89 93 -94 -96 -97 -100 0
x 1 -2 -4 -5 -7 -8 9 -10 11 -12 14 18 -21 22 -23 24 -25 26 -27 -28 -29 -31 35 -37 -41 -42 43 -45 -52 -53 -55 57 60 61 -62 64 65 67 -69 -70 71 -74 75 -76 -81 -84 -85 -88 -89 -96 -99 0
x -1 4 -5 -6 7 10 -12 14 21 23 -25 -26 -28 30 -34 35 -39 40 -41 -46 47 51 54 55 56 57 -60 64 -66 70 73 -74 -75 -77 -79 80 81 -83 85 -87 88 -89 92 93 96 97 -100 0
x 1 3 -5 6 -7 -11 -13 14 -15 -16 17 -24 26 -28 -29 32 33 38 -39 40 42 43 -45 -50 51 53 55 -57 58 59 61 -64 65 -67 69 -70 72 73 75 -77 79 -81 82 85 -86 89 -94 97 0
x 1 2 3 -4 5 -6 8 -10 11 -13 -15 -16 19 20 21 25 -27 -28 32 -35 41 42 43 -50 -51 54 55 -61 -62 -63 -64 -65 66 -67 68 71 -73 75 78 79 80 -82 -83 84 85 -86 -87 90 91 92 93 96 98 99 -100 0
x 4 5 -10 -11 13 14 18 -19 -21 22 23 27 -28 29 -30 32 36 -40 -45 46 -49 -51 52 53 55 58 -61 -62 63 -64 65 66 68 -69 72 -76 -77 78 79 81 83 -84 -85 -86 93 -96 -98 0
x -4 -7 -9 -13 -14 15 -16 17 -19 -20 24 -25 28 -31 -37 -41 42 -43 -44 45 -46 -48 49 50 51 -53 -54 55 57 58 60 -61 62 -66 -67 70 -71 -75 76 -77 -78 -80 81 82 83 -89 90 91 -93 99 -100 0
x 5 7 8 -9 -10 -12 -13 14 -18 -19 -20 -22 24 -26 31 33 34 36 37 40 42 43 44 46 -47 -51 60 -61 63 -65 -66 70 71 74 -75 -77 78 80 -81 -82 -83 84 -85 87 -88 90 -91 -92 -93 96 97 0
x -1 2 3 4 -8 10 12 -17 18 19 -22 -30 -31 -36 41 43 -44 -47 49 -50 -51 -53 55 56 -58 64 -65 -68 71 -73 -74 80 82 -83 -86 -87 -91 92 93 94 -97 -100 0
x -3 4 -5 6 -9 -12 -13 -14 17 -19 21 -22 23 35 36 -37 38 -41 43 50 -52 -53 -54 -55 56 -58 -59 61 62 -63 64 65 66 -67 70 71 -72 75 -77 -79 -82 83 84 -88 89 90 -92 93 -94 99 100 0
x 3 4 -5 -8 9 11 -12 -13 -14 -15 16 -18 -19 21 -23 -25 -26 30 31 32 33 -35 36 -37 -40 -41 42 46 -47 48 -49 -50 52 -53 -54 -56 59 62 63 -65 67 -68 69 -70 73 -74 77 -78 79 -81 -82 -84 -85 90 -92 93 -95 99 -100 0
x 4 -5 -8 -9 -10 11 12 14 -15 -17 -19 -20 -21 22 -23 -29 -33 34 37 39 -40 -41 -43 -44 -46 -47 48 -49 51 -52 -53 -54 -58 59 -60 -61 66 67 -68 69 71 -72 -73 79 -81 -83 -84 85 -86 -87 -89 -91 -93 94 -95 -97 -98 99 0
x -1 3 -4 -5 -6 -8 -9 10 12 15 16 17 -18 21 -23 -24 -26 -27 -28 30 34 -36 37 38 -39 -40 -41 -43 44 -46 51 58 60 -61 -62 65 69 -73 74 -80 -82 84 86 91 94 -97 98 -99 0
x 1 2 7 11 13 -16 -18 19 20 -21 24 28 -29 -30 31 -34 -36 37 39 -43 -44 47 -48 -50 54 56 58 59 60 -64 68 69 71 -72 73 -75 78 79 -82 83 87 -91 -92 -95 97 98 0
x 6 -8 -9 -11 14 -16 -18 -19 -22 -23 24 -27 -29 30 -33 35 -36 -40 42 46 47 48 -50 -51 53 -56 58 59 -60 62 -65 -68 69 -70 71 72 73 -74 75 79 -80 -83 -87 88 -89 -91 95 -99 0
x 2 3 4 5 6 -7 -8 -11 12 14 -15 18 -19 21 -25 -29 31 35 -36 -37 38 -42 43 -45 -46 48 -49 52 -53 54 -56 57 58 63 64 65 66 -67 68 -75 79 -81 -83 -85 86 -87 -88 -90 91 94 98 0
x -2 -3 4 6 8 10 -12 13 -15 -17 -18 -19 -21 -22 23 24 -28 -29 31 32 -33 -35 -36 40 -41 -44 -47 48 52 -54 56 -59 -60 61 63 64 -65 71 -75 76 -77 78 80 -81 84 -87 -88 94 -96 97 -98 -99 0
